objective value:                                    0
lambda[0,17]*                                       2 	(obj:0)
lambda[0,18]*                                       3 	(obj:0)
lambda[0,19]*                                       3 	(obj:0)
lambda[0,20]*                                       2 	(obj:0)
lambda[1,22]*                                       4 	(obj:0)
lambda[1,23]*                                       3 	(obj:0)
lambda[1,24]*                                       3 	(obj:0)
